predicate array_int_element2d_nonshifted_flat(var int: idx1,var int: idx2,array [int] of var int: x,var int: c,int: numRows,int: offset1,int: offset2);
array [1..378] of int: X_INTRODUCED_60_ = [7,5,5,5,5,3,0,2,2,2,2,2,7,5,5,5,5,3,19,4,4,4,4,3,30,4,4,4,4,3,0,10,10,10,10,10,46,8,8,8,8,0,0,12,12,12,12,13,0,15,15,15,15,14,0,16,16,16,16,16,0,18,18,18,18,17,0,20,20,20,20,20,0,21,21,21,21,21,0,22,22,22,22,22,0,23,23,23,23,23,0,28,28,28,28,0,47,22,22,22,22,22,47,23,23,23,23,23,46,11,11,11,11,24,0,26,26,26,26,26,0,25,25,25,25,25,0,27,27,27,27,25,0,29,29,29,29,26,0,31,31,31,31,31,32,0,0,0,0,0,33,0,0,0,0,0,34,0,0,0,0,0,35,0,0,0,0,0,36,0,0,0,0,0,46,9,9,9,9,6,47,16,16,16,16,16,0,35,35,35,35,0,60,35,35,35,35,0,0,37,37,37,37,39,0,39,39,39,39,39,60,37,37,37,37,39,0,40,40,40,40,40,0,41,41,41,41,41,0,42,42,42,42,42,0,43,43,43,43,43,0,45,45,45,45,45,0,47,47,47,47,47,60,47,47,47,47,47,48,0,0,0,0,0,49,44,44,44,44,0,53,38,38,38,38,38,60,0,0,0,0,0,0,50,50,50,50,50,0,51,51,51,51,0,0,52,52,52,52,52,0,54,54,54,54,54,0,55,55,55,55,55,0,56,56,56,56,56,0,57,57,57,57,57,0,60,60,60,60,0,0,58,58,58,58,58,0,59,59,59,59,59,61,55,55,55,55,0,62,0,0,0,0,0,63,0,0,0,0,0,0,62,62,62,62,0,0,63,63,63,63,0,0,2,2,2,2,2];
array [1..54] of int: X_INTRODUCED_104_ = [3,4,3,3,3,3,2,0,2,2,2,2,3,4,3,3,3,3,5,9,5,5,5,5,6,0,6,6,6,6,7,0,7,7,7,7,8,0,8,8,8,8,0,9,0,0,0,0,2,0,2,2,2,2];
array [1..324] of int: X_INTRODUCED_148_ = [4,4,14,4,4,5,2,2,0,2,2,2,3,3,10,3,3,5,3,3,12,3,3,5,4,4,14,4,4,5,8,8,0,8,8,0,9,9,0,9,9,13,11,11,0,11,11,11,11,11,22,11,11,11,7,7,15,7,7,11,13,13,0,13,13,13,6,6,15,6,6,0,0,0,22,0,0,0,6,6,25,6,6,0,17,17,29,17,17,16,19,19,0,19,19,19,20,20,0,20,20,20,21,21,0,21,21,21,22,22,0,22,22,0,23,23,0,23,23,24,24,24,0,24,24,24,26,26,0,26,26,0,26,26,27,26,26,0,0,0,27,0,0,0,18,18,29,18,18,0,0,0,30,0,0,0,28,28,0,28,28,0,30,30,0,30,30,0,32,32,0,32,32,32,33,33,0,33,33,33,34,34,0,34,34,0,35,35,0,35,35,35,36,36,0,36,36,36,0,0,37,0,0,0,31,31,40,31,31,0,0,0,45,0,0,0,39,39,0,39,39,39,41,41,0,41,41,41,42,42,0,42,42,42,43,43,0,43,43,0,44,44,0,44,44,44,45,45,0,45,45,0,38,38,46,38,38,0,0,0,50,0,0,0,0,0,51,0,0,0,47,47,0,47,47,47,49,49,0,49,49,49,51,51,0,51,51,0,48,48,52,48,48,0,0,0,53,0,0,0,0,0,54,0,0,0,53,53,0,53,53,0,54,54,0,54,54,0,2,2,0,2,2,2];
array [1..24] of int: X_INTRODUCED_192_ = [3,3,3,4,3,3,2,2,2,0,2,2,3,3,3,4,3,3,2,2,2,0,2,2];
array [1..84] of int: X_INTRODUCED_236_ = [3,3,3,3,8,3,2,2,2,2,0,2,3,3,3,3,8,3,5,5,5,5,0,5,6,6,6,6,0,6,7,7,7,7,0,7,0,0,0,0,9,0,4,4,4,4,13,4,10,10,10,10,0,10,11,11,11,11,0,11,12,12,12,12,0,12,13,13,13,13,0,13,0,0,0,0,14,0,2,2,2,2,0,2];
var 1..5: X_INTRODUCED_16_;
var 1..5: X_INTRODUCED_17_;
var 1..5: X_INTRODUCED_18_;
var 1..5: X_INTRODUCED_19_;
var 1..5: X_INTRODUCED_21_;
var 1..5: X_INTRODUCED_22_;
var 1..5: X_INTRODUCED_23_;
var 1..5: X_INTRODUCED_24_;
var 1..5: X_INTRODUCED_26_;
var 1..5: X_INTRODUCED_27_;
var 1..5: X_INTRODUCED_28_;
var 1..5: X_INTRODUCED_29_;
var 1..5: X_INTRODUCED_31_;
var 1..5: X_INTRODUCED_32_;
var 1..5: X_INTRODUCED_33_;
var 1..5: X_INTRODUCED_34_;
var 1..63: X_INTRODUCED_59_ ::var_is_introduced :: is_defined_var;
var 1..63: X_INTRODUCED_61_ ::var_is_introduced :: is_defined_var;
var 1..63: X_INTRODUCED_62_ ::var_is_introduced :: is_defined_var;
var 1..63: X_INTRODUCED_63_ ::var_is_introduced :: is_defined_var;
var 1..63: X_INTRODUCED_64_ ::var_is_introduced :: is_defined_var;
var 1..63: X_INTRODUCED_65_ ::var_is_introduced :: is_defined_var;
var 1..63: X_INTRODUCED_66_ ::var_is_introduced :: is_defined_var;
var 1..63: X_INTRODUCED_67_ ::var_is_introduced :: is_defined_var;
var 1..63: X_INTRODUCED_68_ ::var_is_introduced :: is_defined_var;
var 1..63: X_INTRODUCED_69_ ::var_is_introduced :: is_defined_var;
var 1..63: X_INTRODUCED_70_ ::var_is_introduced :: is_defined_var;
var 1..63: X_INTRODUCED_71_ ::var_is_introduced :: is_defined_var;
var 1..63: X_INTRODUCED_72_ ::var_is_introduced :: is_defined_var;
var 1..63: X_INTRODUCED_73_ ::var_is_introduced :: is_defined_var;
var 1..63: X_INTRODUCED_74_ ::var_is_introduced :: is_defined_var;
var 1..63: X_INTRODUCED_75_ ::var_is_introduced :: is_defined_var;
var 1..63: X_INTRODUCED_76_ ::var_is_introduced :: is_defined_var;
var 1..63: X_INTRODUCED_77_ ::var_is_introduced :: is_defined_var;
var 1..63: X_INTRODUCED_78_ ::var_is_introduced :: is_defined_var;
var 1..2: X_INTRODUCED_79_ ::var_is_introduced :: is_defined_var;
var 1..9: X_INTRODUCED_103_ ::var_is_introduced :: is_defined_var;
var 1..9: X_INTRODUCED_105_ ::var_is_introduced :: is_defined_var;
var 1..9: X_INTRODUCED_106_ ::var_is_introduced :: is_defined_var;
var 1..9: X_INTRODUCED_107_ ::var_is_introduced :: is_defined_var;
var 1..9: X_INTRODUCED_108_ ::var_is_introduced :: is_defined_var;
var 1..9: X_INTRODUCED_109_ ::var_is_introduced :: is_defined_var;
var 1..9: X_INTRODUCED_110_ ::var_is_introduced :: is_defined_var;
var 1..9: X_INTRODUCED_111_ ::var_is_introduced :: is_defined_var;
var 1..9: X_INTRODUCED_112_ ::var_is_introduced :: is_defined_var;
var 1..9: X_INTRODUCED_113_ ::var_is_introduced :: is_defined_var;
var 1..9: X_INTRODUCED_114_ ::var_is_introduced :: is_defined_var;
var 1..9: X_INTRODUCED_115_ ::var_is_introduced :: is_defined_var;
var 1..9: X_INTRODUCED_116_ ::var_is_introduced :: is_defined_var;
var 1..9: X_INTRODUCED_117_ ::var_is_introduced :: is_defined_var;
var 1..9: X_INTRODUCED_118_ ::var_is_introduced :: is_defined_var;
var 1..9: X_INTRODUCED_119_ ::var_is_introduced :: is_defined_var;
var 1..9: X_INTRODUCED_120_ ::var_is_introduced :: is_defined_var;
var 1..9: X_INTRODUCED_121_ ::var_is_introduced :: is_defined_var;
var 1..9: X_INTRODUCED_122_ ::var_is_introduced :: is_defined_var;
var 1..2: X_INTRODUCED_123_ ::var_is_introduced :: is_defined_var;
var 1..54: X_INTRODUCED_147_ ::var_is_introduced :: is_defined_var;
var 1..54: X_INTRODUCED_149_ ::var_is_introduced :: is_defined_var;
var 1..54: X_INTRODUCED_150_ ::var_is_introduced :: is_defined_var;
var 1..54: X_INTRODUCED_151_ ::var_is_introduced :: is_defined_var;
var 1..54: X_INTRODUCED_152_ ::var_is_introduced :: is_defined_var;
var 1..54: X_INTRODUCED_153_ ::var_is_introduced :: is_defined_var;
var 1..54: X_INTRODUCED_154_ ::var_is_introduced :: is_defined_var;
var 1..54: X_INTRODUCED_155_ ::var_is_introduced :: is_defined_var;
var 1..54: X_INTRODUCED_156_ ::var_is_introduced :: is_defined_var;
var 1..54: X_INTRODUCED_157_ ::var_is_introduced :: is_defined_var;
var 1..54: X_INTRODUCED_158_ ::var_is_introduced :: is_defined_var;
var 1..54: X_INTRODUCED_159_ ::var_is_introduced :: is_defined_var;
var 1..54: X_INTRODUCED_160_ ::var_is_introduced :: is_defined_var;
var 1..54: X_INTRODUCED_161_ ::var_is_introduced :: is_defined_var;
var 1..54: X_INTRODUCED_162_ ::var_is_introduced :: is_defined_var;
var 1..54: X_INTRODUCED_163_ ::var_is_introduced :: is_defined_var;
var 1..54: X_INTRODUCED_164_ ::var_is_introduced :: is_defined_var;
var 1..54: X_INTRODUCED_165_ ::var_is_introduced :: is_defined_var;
var 1..54: X_INTRODUCED_166_ ::var_is_introduced :: is_defined_var;
var 1..2: X_INTRODUCED_167_ ::var_is_introduced :: is_defined_var;
var 1..4: X_INTRODUCED_191_ ::var_is_introduced :: is_defined_var;
var 1..4: X_INTRODUCED_193_ ::var_is_introduced :: is_defined_var;
var 1..4: X_INTRODUCED_194_ ::var_is_introduced :: is_defined_var;
var 1..4: X_INTRODUCED_195_ ::var_is_introduced :: is_defined_var;
var 1..4: X_INTRODUCED_196_ ::var_is_introduced :: is_defined_var;
var 1..4: X_INTRODUCED_197_ ::var_is_introduced :: is_defined_var;
var 1..4: X_INTRODUCED_198_ ::var_is_introduced :: is_defined_var;
var 1..4: X_INTRODUCED_199_ ::var_is_introduced :: is_defined_var;
var 1..4: X_INTRODUCED_200_ ::var_is_introduced :: is_defined_var;
var 1..4: X_INTRODUCED_201_ ::var_is_introduced :: is_defined_var;
var 1..4: X_INTRODUCED_202_ ::var_is_introduced :: is_defined_var;
var 1..4: X_INTRODUCED_203_ ::var_is_introduced :: is_defined_var;
var 1..4: X_INTRODUCED_204_ ::var_is_introduced :: is_defined_var;
var 1..4: X_INTRODUCED_205_ ::var_is_introduced :: is_defined_var;
var 1..4: X_INTRODUCED_206_ ::var_is_introduced :: is_defined_var;
var 1..4: X_INTRODUCED_207_ ::var_is_introduced :: is_defined_var;
var 1..4: X_INTRODUCED_208_ ::var_is_introduced :: is_defined_var;
var 1..4: X_INTRODUCED_209_ ::var_is_introduced :: is_defined_var;
var 1..4: X_INTRODUCED_210_ ::var_is_introduced :: is_defined_var;
var 1..2: X_INTRODUCED_211_ ::var_is_introduced :: is_defined_var;
var 1..14: X_INTRODUCED_235_ ::var_is_introduced :: is_defined_var;
var 1..14: X_INTRODUCED_237_ ::var_is_introduced :: is_defined_var;
var 1..14: X_INTRODUCED_238_ ::var_is_introduced :: is_defined_var;
var 1..14: X_INTRODUCED_239_ ::var_is_introduced :: is_defined_var;
var 1..14: X_INTRODUCED_240_ ::var_is_introduced :: is_defined_var;
var 1..14: X_INTRODUCED_241_ ::var_is_introduced :: is_defined_var;
var 1..14: X_INTRODUCED_242_ ::var_is_introduced :: is_defined_var;
var 1..14: X_INTRODUCED_243_ ::var_is_introduced :: is_defined_var;
var 1..14: X_INTRODUCED_244_ ::var_is_introduced :: is_defined_var;
var 1..14: X_INTRODUCED_245_ ::var_is_introduced :: is_defined_var;
var 1..14: X_INTRODUCED_246_ ::var_is_introduced :: is_defined_var;
var 1..14: X_INTRODUCED_247_ ::var_is_introduced :: is_defined_var;
var 1..14: X_INTRODUCED_248_ ::var_is_introduced :: is_defined_var;
var 1..14: X_INTRODUCED_249_ ::var_is_introduced :: is_defined_var;
var 1..14: X_INTRODUCED_250_ ::var_is_introduced :: is_defined_var;
var 1..14: X_INTRODUCED_251_ ::var_is_introduced :: is_defined_var;
var 1..14: X_INTRODUCED_252_ ::var_is_introduced :: is_defined_var;
var 1..14: X_INTRODUCED_253_ ::var_is_introduced :: is_defined_var;
var 1..14: X_INTRODUCED_254_ ::var_is_introduced :: is_defined_var;
var 1..2: X_INTRODUCED_255_ ::var_is_introduced :: is_defined_var;
array [1..20] of var int: board:: output_array([1..20]) = [X_INTRODUCED_16_,X_INTRODUCED_17_,X_INTRODUCED_18_,X_INTRODUCED_19_,6,X_INTRODUCED_21_,X_INTRODUCED_22_,X_INTRODUCED_23_,X_INTRODUCED_24_,6,X_INTRODUCED_26_,X_INTRODUCED_27_,X_INTRODUCED_28_,X_INTRODUCED_29_,6,X_INTRODUCED_31_,X_INTRODUCED_32_,X_INTRODUCED_33_,X_INTRODUCED_34_,6];
constraint array_int_element2d_nonshifted_flat(1,X_INTRODUCED_16_,X_INTRODUCED_60_,X_INTRODUCED_59_,6,1,1);
constraint array_int_element2d_nonshifted_flat(X_INTRODUCED_59_,X_INTRODUCED_17_,X_INTRODUCED_60_,X_INTRODUCED_61_,6,1,1);
constraint array_int_element2d_nonshifted_flat(X_INTRODUCED_61_,X_INTRODUCED_18_,X_INTRODUCED_60_,X_INTRODUCED_62_,6,1,1);
constraint array_int_element2d_nonshifted_flat(X_INTRODUCED_62_,X_INTRODUCED_19_,X_INTRODUCED_60_,X_INTRODUCED_63_,6,1,1);
constraint array_int_element2d_nonshifted_flat(X_INTRODUCED_63_,6,X_INTRODUCED_60_,X_INTRODUCED_64_,6,1,1);
constraint array_int_element2d_nonshifted_flat(X_INTRODUCED_64_,X_INTRODUCED_21_,X_INTRODUCED_60_,X_INTRODUCED_65_,6,1,1);
constraint array_int_element2d_nonshifted_flat(X_INTRODUCED_65_,X_INTRODUCED_22_,X_INTRODUCED_60_,X_INTRODUCED_66_,6,1,1);
constraint array_int_element2d_nonshifted_flat(X_INTRODUCED_66_,X_INTRODUCED_23_,X_INTRODUCED_60_,X_INTRODUCED_67_,6,1,1);
constraint array_int_element2d_nonshifted_flat(X_INTRODUCED_67_,X_INTRODUCED_24_,X_INTRODUCED_60_,X_INTRODUCED_68_,6,1,1);
constraint array_int_element2d_nonshifted_flat(X_INTRODUCED_68_,6,X_INTRODUCED_60_,X_INTRODUCED_69_,6,1,1);
constraint array_int_element2d_nonshifted_flat(X_INTRODUCED_69_,X_INTRODUCED_26_,X_INTRODUCED_60_,X_INTRODUCED_70_,6,1,1);
constraint array_int_element2d_nonshifted_flat(X_INTRODUCED_70_,X_INTRODUCED_27_,X_INTRODUCED_60_,X_INTRODUCED_71_,6,1,1);
constraint array_int_element2d_nonshifted_flat(X_INTRODUCED_71_,X_INTRODUCED_28_,X_INTRODUCED_60_,X_INTRODUCED_72_,6,1,1);
constraint array_int_element2d_nonshifted_flat(X_INTRODUCED_72_,X_INTRODUCED_29_,X_INTRODUCED_60_,X_INTRODUCED_73_,6,1,1);
constraint array_int_element2d_nonshifted_flat(X_INTRODUCED_73_,6,X_INTRODUCED_60_,X_INTRODUCED_74_,6,1,1);
constraint array_int_element2d_nonshifted_flat(X_INTRODUCED_74_,X_INTRODUCED_31_,X_INTRODUCED_60_,X_INTRODUCED_75_,6,1,1);
constraint array_int_element2d_nonshifted_flat(X_INTRODUCED_75_,X_INTRODUCED_32_,X_INTRODUCED_60_,X_INTRODUCED_76_,6,1,1);
constraint array_int_element2d_nonshifted_flat(X_INTRODUCED_76_,X_INTRODUCED_33_,X_INTRODUCED_60_,X_INTRODUCED_77_,6,1,1);
constraint array_int_element2d_nonshifted_flat(X_INTRODUCED_77_,X_INTRODUCED_34_,X_INTRODUCED_60_,X_INTRODUCED_78_,6,1,1);
constraint array_int_element2d_nonshifted_flat(X_INTRODUCED_78_,6,X_INTRODUCED_60_,X_INTRODUCED_79_,6,1,1);
constraint array_int_element2d_nonshifted_flat(1,X_INTRODUCED_16_,X_INTRODUCED_104_,X_INTRODUCED_103_,6,1,1);
constraint array_int_element2d_nonshifted_flat(X_INTRODUCED_103_,X_INTRODUCED_17_,X_INTRODUCED_104_,X_INTRODUCED_105_,6,1,1);
constraint array_int_element2d_nonshifted_flat(X_INTRODUCED_105_,X_INTRODUCED_18_,X_INTRODUCED_104_,X_INTRODUCED_106_,6,1,1);
constraint array_int_element2d_nonshifted_flat(X_INTRODUCED_106_,X_INTRODUCED_19_,X_INTRODUCED_104_,X_INTRODUCED_107_,6,1,1);
constraint array_int_element2d_nonshifted_flat(X_INTRODUCED_107_,6,X_INTRODUCED_104_,X_INTRODUCED_108_,6,1,1);
constraint array_int_element2d_nonshifted_flat(X_INTRODUCED_108_,X_INTRODUCED_21_,X_INTRODUCED_104_,X_INTRODUCED_109_,6,1,1);
constraint array_int_element2d_nonshifted_flat(X_INTRODUCED_109_,X_INTRODUCED_22_,X_INTRODUCED_104_,X_INTRODUCED_110_,6,1,1);
constraint array_int_element2d_nonshifted_flat(X_INTRODUCED_110_,X_INTRODUCED_23_,X_INTRODUCED_104_,X_INTRODUCED_111_,6,1,1);
constraint array_int_element2d_nonshifted_flat(X_INTRODUCED_111_,X_INTRODUCED_24_,X_INTRODUCED_104_,X_INTRODUCED_112_,6,1,1);
constraint array_int_element2d_nonshifted_flat(X_INTRODUCED_112_,6,X_INTRODUCED_104_,X_INTRODUCED_113_,6,1,1);
constraint array_int_element2d_nonshifted_flat(X_INTRODUCED_113_,X_INTRODUCED_26_,X_INTRODUCED_104_,X_INTRODUCED_114_,6,1,1);
constraint array_int_element2d_nonshifted_flat(X_INTRODUCED_114_,X_INTRODUCED_27_,X_INTRODUCED_104_,X_INTRODUCED_115_,6,1,1);
constraint array_int_element2d_nonshifted_flat(X_INTRODUCED_115_,X_INTRODUCED_28_,X_INTRODUCED_104_,X_INTRODUCED_116_,6,1,1);
constraint array_int_element2d_nonshifted_flat(X_INTRODUCED_116_,X_INTRODUCED_29_,X_INTRODUCED_104_,X_INTRODUCED_117_,6,1,1);
constraint array_int_element2d_nonshifted_flat(X_INTRODUCED_117_,6,X_INTRODUCED_104_,X_INTRODUCED_118_,6,1,1);
constraint array_int_element2d_nonshifted_flat(X_INTRODUCED_118_,X_INTRODUCED_31_,X_INTRODUCED_104_,X_INTRODUCED_119_,6,1,1);
constraint array_int_element2d_nonshifted_flat(X_INTRODUCED_119_,X_INTRODUCED_32_,X_INTRODUCED_104_,X_INTRODUCED_120_,6,1,1);
constraint array_int_element2d_nonshifted_flat(X_INTRODUCED_120_,X_INTRODUCED_33_,X_INTRODUCED_104_,X_INTRODUCED_121_,6,1,1);
constraint array_int_element2d_nonshifted_flat(X_INTRODUCED_121_,X_INTRODUCED_34_,X_INTRODUCED_104_,X_INTRODUCED_122_,6,1,1);
constraint array_int_element2d_nonshifted_flat(X_INTRODUCED_122_,6,X_INTRODUCED_104_,X_INTRODUCED_123_,6,1,1);
constraint array_int_element2d_nonshifted_flat(1,X_INTRODUCED_16_,X_INTRODUCED_148_,X_INTRODUCED_147_,6,1,1);
constraint array_int_element2d_nonshifted_flat(X_INTRODUCED_147_,X_INTRODUCED_17_,X_INTRODUCED_148_,X_INTRODUCED_149_,6,1,1);
constraint array_int_element2d_nonshifted_flat(X_INTRODUCED_149_,X_INTRODUCED_18_,X_INTRODUCED_148_,X_INTRODUCED_150_,6,1,1);
constraint array_int_element2d_nonshifted_flat(X_INTRODUCED_150_,X_INTRODUCED_19_,X_INTRODUCED_148_,X_INTRODUCED_151_,6,1,1);
constraint array_int_element2d_nonshifted_flat(X_INTRODUCED_151_,6,X_INTRODUCED_148_,X_INTRODUCED_152_,6,1,1);
constraint array_int_element2d_nonshifted_flat(X_INTRODUCED_152_,X_INTRODUCED_21_,X_INTRODUCED_148_,X_INTRODUCED_153_,6,1,1);
constraint array_int_element2d_nonshifted_flat(X_INTRODUCED_153_,X_INTRODUCED_22_,X_INTRODUCED_148_,X_INTRODUCED_154_,6,1,1);
constraint array_int_element2d_nonshifted_flat(X_INTRODUCED_154_,X_INTRODUCED_23_,X_INTRODUCED_148_,X_INTRODUCED_155_,6,1,1);
constraint array_int_element2d_nonshifted_flat(X_INTRODUCED_155_,X_INTRODUCED_24_,X_INTRODUCED_148_,X_INTRODUCED_156_,6,1,1);
constraint array_int_element2d_nonshifted_flat(X_INTRODUCED_156_,6,X_INTRODUCED_148_,X_INTRODUCED_157_,6,1,1);
constraint array_int_element2d_nonshifted_flat(X_INTRODUCED_157_,X_INTRODUCED_26_,X_INTRODUCED_148_,X_INTRODUCED_158_,6,1,1);
constraint array_int_element2d_nonshifted_flat(X_INTRODUCED_158_,X_INTRODUCED_27_,X_INTRODUCED_148_,X_INTRODUCED_159_,6,1,1);
constraint array_int_element2d_nonshifted_flat(X_INTRODUCED_159_,X_INTRODUCED_28_,X_INTRODUCED_148_,X_INTRODUCED_160_,6,1,1);
constraint array_int_element2d_nonshifted_flat(X_INTRODUCED_160_,X_INTRODUCED_29_,X_INTRODUCED_148_,X_INTRODUCED_161_,6,1,1);
constraint array_int_element2d_nonshifted_flat(X_INTRODUCED_161_,6,X_INTRODUCED_148_,X_INTRODUCED_162_,6,1,1);
constraint array_int_element2d_nonshifted_flat(X_INTRODUCED_162_,X_INTRODUCED_31_,X_INTRODUCED_148_,X_INTRODUCED_163_,6,1,1);
constraint array_int_element2d_nonshifted_flat(X_INTRODUCED_163_,X_INTRODUCED_32_,X_INTRODUCED_148_,X_INTRODUCED_164_,6,1,1);
constraint array_int_element2d_nonshifted_flat(X_INTRODUCED_164_,X_INTRODUCED_33_,X_INTRODUCED_148_,X_INTRODUCED_165_,6,1,1);
constraint array_int_element2d_nonshifted_flat(X_INTRODUCED_165_,X_INTRODUCED_34_,X_INTRODUCED_148_,X_INTRODUCED_166_,6,1,1);
constraint array_int_element2d_nonshifted_flat(X_INTRODUCED_166_,6,X_INTRODUCED_148_,X_INTRODUCED_167_,6,1,1);
constraint array_int_element2d_nonshifted_flat(1,X_INTRODUCED_16_,X_INTRODUCED_192_,X_INTRODUCED_191_,6,1,1);
constraint array_int_element2d_nonshifted_flat(X_INTRODUCED_191_,X_INTRODUCED_17_,X_INTRODUCED_192_,X_INTRODUCED_193_,6,1,1);
constraint array_int_element2d_nonshifted_flat(X_INTRODUCED_193_,X_INTRODUCED_18_,X_INTRODUCED_192_,X_INTRODUCED_194_,6,1,1);
constraint array_int_element2d_nonshifted_flat(X_INTRODUCED_194_,X_INTRODUCED_19_,X_INTRODUCED_192_,X_INTRODUCED_195_,6,1,1);
constraint array_int_element2d_nonshifted_flat(X_INTRODUCED_195_,6,X_INTRODUCED_192_,X_INTRODUCED_196_,6,1,1);
constraint array_int_element2d_nonshifted_flat(X_INTRODUCED_196_,X_INTRODUCED_21_,X_INTRODUCED_192_,X_INTRODUCED_197_,6,1,1);
constraint array_int_element2d_nonshifted_flat(X_INTRODUCED_197_,X_INTRODUCED_22_,X_INTRODUCED_192_,X_INTRODUCED_198_,6,1,1);
constraint array_int_element2d_nonshifted_flat(X_INTRODUCED_198_,X_INTRODUCED_23_,X_INTRODUCED_192_,X_INTRODUCED_199_,6,1,1);
constraint array_int_element2d_nonshifted_flat(X_INTRODUCED_199_,X_INTRODUCED_24_,X_INTRODUCED_192_,X_INTRODUCED_200_,6,1,1);
constraint array_int_element2d_nonshifted_flat(X_INTRODUCED_200_,6,X_INTRODUCED_192_,X_INTRODUCED_201_,6,1,1);
constraint array_int_element2d_nonshifted_flat(X_INTRODUCED_201_,X_INTRODUCED_26_,X_INTRODUCED_192_,X_INTRODUCED_202_,6,1,1);
constraint array_int_element2d_nonshifted_flat(X_INTRODUCED_202_,X_INTRODUCED_27_,X_INTRODUCED_192_,X_INTRODUCED_203_,6,1,1);
constraint array_int_element2d_nonshifted_flat(X_INTRODUCED_203_,X_INTRODUCED_28_,X_INTRODUCED_192_,X_INTRODUCED_204_,6,1,1);
constraint array_int_element2d_nonshifted_flat(X_INTRODUCED_204_,X_INTRODUCED_29_,X_INTRODUCED_192_,X_INTRODUCED_205_,6,1,1);
constraint array_int_element2d_nonshifted_flat(X_INTRODUCED_205_,6,X_INTRODUCED_192_,X_INTRODUCED_206_,6,1,1);
constraint array_int_element2d_nonshifted_flat(X_INTRODUCED_206_,X_INTRODUCED_31_,X_INTRODUCED_192_,X_INTRODUCED_207_,6,1,1);
constraint array_int_element2d_nonshifted_flat(X_INTRODUCED_207_,X_INTRODUCED_32_,X_INTRODUCED_192_,X_INTRODUCED_208_,6,1,1);
constraint array_int_element2d_nonshifted_flat(X_INTRODUCED_208_,X_INTRODUCED_33_,X_INTRODUCED_192_,X_INTRODUCED_209_,6,1,1);
constraint array_int_element2d_nonshifted_flat(X_INTRODUCED_209_,X_INTRODUCED_34_,X_INTRODUCED_192_,X_INTRODUCED_210_,6,1,1);
constraint array_int_element2d_nonshifted_flat(X_INTRODUCED_210_,6,X_INTRODUCED_192_,X_INTRODUCED_211_,6,1,1);
constraint array_int_element2d_nonshifted_flat(1,X_INTRODUCED_16_,X_INTRODUCED_236_,X_INTRODUCED_235_,6,1,1);
constraint array_int_element2d_nonshifted_flat(X_INTRODUCED_235_,X_INTRODUCED_17_,X_INTRODUCED_236_,X_INTRODUCED_237_,6,1,1);
constraint array_int_element2d_nonshifted_flat(X_INTRODUCED_237_,X_INTRODUCED_18_,X_INTRODUCED_236_,X_INTRODUCED_238_,6,1,1);
constraint array_int_element2d_nonshifted_flat(X_INTRODUCED_238_,X_INTRODUCED_19_,X_INTRODUCED_236_,X_INTRODUCED_239_,6,1,1);
constraint array_int_element2d_nonshifted_flat(X_INTRODUCED_239_,6,X_INTRODUCED_236_,X_INTRODUCED_240_,6,1,1);
constraint array_int_element2d_nonshifted_flat(X_INTRODUCED_240_,X_INTRODUCED_21_,X_INTRODUCED_236_,X_INTRODUCED_241_,6,1,1);
constraint array_int_element2d_nonshifted_flat(X_INTRODUCED_241_,X_INTRODUCED_22_,X_INTRODUCED_236_,X_INTRODUCED_242_,6,1,1);
constraint array_int_element2d_nonshifted_flat(X_INTRODUCED_242_,X_INTRODUCED_23_,X_INTRODUCED_236_,X_INTRODUCED_243_,6,1,1);
constraint array_int_element2d_nonshifted_flat(X_INTRODUCED_243_,X_INTRODUCED_24_,X_INTRODUCED_236_,X_INTRODUCED_244_,6,1,1);
constraint array_int_element2d_nonshifted_flat(X_INTRODUCED_244_,6,X_INTRODUCED_236_,X_INTRODUCED_245_,6,1,1);
constraint array_int_element2d_nonshifted_flat(X_INTRODUCED_245_,X_INTRODUCED_26_,X_INTRODUCED_236_,X_INTRODUCED_246_,6,1,1);
constraint array_int_element2d_nonshifted_flat(X_INTRODUCED_246_,X_INTRODUCED_27_,X_INTRODUCED_236_,X_INTRODUCED_247_,6,1,1);
constraint array_int_element2d_nonshifted_flat(X_INTRODUCED_247_,X_INTRODUCED_28_,X_INTRODUCED_236_,X_INTRODUCED_248_,6,1,1);
constraint array_int_element2d_nonshifted_flat(X_INTRODUCED_248_,X_INTRODUCED_29_,X_INTRODUCED_236_,X_INTRODUCED_249_,6,1,1);
constraint array_int_element2d_nonshifted_flat(X_INTRODUCED_249_,6,X_INTRODUCED_236_,X_INTRODUCED_250_,6,1,1);
constraint array_int_element2d_nonshifted_flat(X_INTRODUCED_250_,X_INTRODUCED_31_,X_INTRODUCED_236_,X_INTRODUCED_251_,6,1,1);
constraint array_int_element2d_nonshifted_flat(X_INTRODUCED_251_,X_INTRODUCED_32_,X_INTRODUCED_236_,X_INTRODUCED_252_,6,1,1);
constraint array_int_element2d_nonshifted_flat(X_INTRODUCED_252_,X_INTRODUCED_33_,X_INTRODUCED_236_,X_INTRODUCED_253_,6,1,1);
constraint array_int_element2d_nonshifted_flat(X_INTRODUCED_253_,X_INTRODUCED_34_,X_INTRODUCED_236_,X_INTRODUCED_254_,6,1,1);
constraint array_int_element2d_nonshifted_flat(X_INTRODUCED_254_,6,X_INTRODUCED_236_,X_INTRODUCED_255_,6,1,1);
solve :: int_search(board,input_order,indomain_min,complete) satisfy;
